CMPL model generation - running

CMPL version: 1.11.0
Authors: Thomas Schleiff, Mike Steglich
Distributed under the GPLv3 

create model instance ...
write model instance ...
CMPL model generation - finished

Solver - running


Welcome to IBM(R) ILOG(R) CPLEX(R) Interactive Optimizer 12.7.1.0
  with Simplex, Mixed Integer & Barrier Optimizers
5725-A06 5725-A29 5724-Y48 5724-Y49 5724-Y54 5724-Y55 5655-Y21
Copyright IBM Corp. 1988, 2017.  All Rights Reserved.

Type 'help' for a list of available commands.
Type 'help' followed by a command name for more
information on commands.

CPLEX> Specified objective sense: MINIMIZE
Selected objective  name:  line[1]
Selected RHS        name:  RHS
Selected bound      name:  BOUND
Problem '/tmp/cmpl.T24322.mps' read.
Read time = 0.09 sec. (10.13 ticks)
CPLEX> CPXPARAM_Read_APIEncoding                        "UTF-8"
Tried aggregator 3 times.
MIP Presolve eliminated 23927 rows and 37431 columns.
MIP Presolve modified 425 coefficients.
Aggregator did 822 substitutions.
Reduced MIP has 3173 rows, 4202 columns, and 12427 nonzeros.
Reduced MIP has 3992 binaries, 0 generals, 0 SOSs, and 0 indicators.
Presolve time = 0.07 sec. (52.25 ticks)
Found incumbent of value 1121.069020 after 0.14 sec. (81.87 ticks)
Probing fixed 15 vars, tightened 0 bounds.
Probing time = 0.02 sec. (5.48 ticks)
Tried aggregator 1 time.
MIP Presolve eliminated 0 rows and 15 columns.
MIP Presolve modified 83 coefficients.
Reduced MIP has 3173 rows, 4187 columns, and 12397 nonzeros.
Reduced MIP has 4187 binaries, 0 generals, 0 SOSs, and 0 indicators.
Presolve time = 0.01 sec. (10.45 ticks)
Probing time = 0.01 sec. (2.86 ticks)
Clique table members: 7644.
MIP emphasis: balance optimality and feasibility.
MIP search method: dynamic search.
Parallel mode: none, using 1 thread.
Root relaxation solution time = 0.01 sec. (7.41 ticks)

        Nodes                                         Cuts/
   Node  Left     Objective  IInf  Best Integer    Best Bound    ItCnt     Gap

*     0+    0                         1121.0690      -12.0332           101.07%
      0     0      341.6287     2     1121.0690      341.6287      259   69.53%
*     0+    0                          341.6289      341.6287             0.00%

Root node processing (before b&c):
  Real time             =    0.22 sec. (122.46 ticks)
Sequential b&c:
  Real time             =    0.00 sec. (0.00 ticks)
                          ------------
Total (root+branch&cut) =    0.22 sec. (122.46 ticks)

Solution pool: 2 solutions saved.

MIP - Integer optimal, tolerance (0.0001/1e-06):  Objective =  3.4162893900e+02
Current MIP best bound =  3.4162870650e+02 (gap = 0.0002325, 0.00%)
Solution time =    0.22 sec.  Iterations = 259  Nodes = 0 (1)
Deterministic time = 122.58 ticks  (562.56 ticks/sec)

CPLEX> Incumbent solution written to file '/tmp/cmpl.T24322.gsol'.
CPLEX> 
CMPL: Time used for model generation: 1 seconds
CMPL: Time used for solving the model: 1 seconds


Solution written to ASCII file: results/output_generated_conf_0.6/2016-10-03-5/fair-nonlinear.sol

Solver - finished
